proyfinal/src/viki/013/experimentInOfficeAgust.take6.output/09a24fac-f302-46e5-a19a-ca79079b81a8.als.out
Reading from standard input... Use '--help' for help.
============================[ Problem Statistics ]=============================
|                                                                             |
|  Number of variables:         87638                                         |
|  Number of clauses:          161767                                         |
|  Parse time:                   0.03 s                                       |
|                                                                             |
============================[ Search Statistics ]==============================
| Conflicts |          ORIGINAL         |          LEARNT          | Progress |
|           |    Vars  Clauses Literals |    Limit  Clauses Lit/Cl |          |
===============================================================================
|       100 |   63215   108231   270311 |    39684      100     40 | 27.868 % |
|       250 |   55944    86293   216423 |    43653      248     45 | 36.165 % |
|       475 |   55944    86293   216423 |    48018      473     79 | 36.165 % |
|       812 |   55944    86293   216423 |    52820      810     54 | 36.165 % |
|      1318 |   55183    83803   209791 |    58102     1203     89 | 37.033 % |
|      2077 |   55183    83803   209791 |    63912     1962     74 | 37.033 % |
|      3216 |   55183    83803   209791 |    70303     3101     68 | 37.033 % |
|      4924 |   55183    83803   209791 |    77334     4809     62 | 37.033 % |
|      7486 |   55121    83562   209212 |    85067     7365     71 | 37.104 % |
|     11330 |   55081    83296   208628 |    93574    11193     69 | 37.149 % |
|     17096 |   54841    82315   206302 |   102931    15951     74 | 37.423 % |
===============================================================================
restarts              : 77
conflicts             : 21452          (8474 /sec)
decisions             : 64326          (0.00 % random) (25410 /sec)
propagations          : 26982902       (10658952 /sec)
conflict literals     : 1537109        (45.11 % deleted)
Memory used           : 48.65 MB
CPU time              : 2.53148 s

UNSATISFIABLE
